 $SYSTEM MWORDS=2000 MEMDDI=1100 $END
 $BASIS GBASIS=sto ngauss=3 $END
 $CONTRL SCFTYP=rhf cityp=aldet mult=1
         ispher=1 maxit=200 units=bohr $END
 $GUESS  GUESS=hcore $END
 $scf conv=1.0d-8 dirscf=.t. $end
 $cidet ncore=4 nact=3 nels=2 nstate=2 cvgtol=1.0d-6 itermx=500 stsym=a2 $end

 $DATA
h2o sto3g crawford cisd
cnv 2

O  8  0.000  0.000           -0.143225816552 
H  1  0.000  1.638036840407   1.136548822547
 $END
       
