$rem
  method hf
  basis sto-3g
  scf_convergence 9
  thresh 14
  scf_algorithm rca_diis
  scf_max_cycles 1000
  symmetry false
  sym_ignore true
$end  

$molecule
0 2
C 0.0 0.0 0.0
N 0.0 0.0 1.1941
$end
