! uhf sto-3g nori verytightscf noautostart nousesym

* xyz 0 2
C 0.0 0.0 0.0
N 0.0 0.0 1.1941
*
